p cnf 14 20
14 13 2 0
14 -13 2 0
14 -13 -1 0
-14 -11 7 0
14 -10 -6 0
-13 -11 -10 0
-13 -10 9 0
-13 -9 7 0
13 6 5 0
-13 3 2 0
-12 -6 -2 0
11 -4 -1 0
-9 8 -5 0
9 5 3 0
-8 -7 -5 0
8 -5 -2 0
7 3 -1 0
6 -4 1 0
-5 -4 2 0
4 2 -1 0
